# Solution for model r10_t36_m6_4 Batch Number: 2
# Finished Task: 35 / 36
# Makespan: 804.0, Total Distance: 429.0, Total Time: 22.0688
# R O S F Batch
0 0 33 0.0 0.0 -1
1 1 12 0.0 0.0 -1
2 2 14 0.0 0.0 -1
3 3 -1 0.0 0.0 -1
4 4 31 0.0 0.0 -1
5 5 35 0.0 0.0 -1
6 6 45 0.0 0.0 -1
7 7 24 0.0 0.0 -1
8 8 41 0.0 0.0 -1
9 9 36 0.0 0.0 -1
10 1 27 510.0 547.0 0
11 0 26 475.0 510.0 0
12 1 37 346.0 382.0 0
13 0 20 404.0 427.0 0
14 2 28 322.0 349.0 0
15 9 16 641.0 677.0 0
16 9 39 721.0 743.0 0
17 -1 -1 -1.0 -1.0 1
18 2 34 667.0 702.0 1
19 2 18 489.0 525.0 0
20 0 11 436.0 456.0 0
21 7 32 508.0 535.0 0
22 7 21 474.0 498.0 0
23 4 -1 698.0 719.0 1
24 7 22 443.0 463.0 0
25 1 30 610.0 643.0 1
26 0 -1 777.0 804.0 1
27 1 25 561.0 598.0 0
28 2 19 372.0 405.0 0
29 7 -1 747.0 781.0 1
30 1 40 655.0 693.0 1
31 4 23 673.0 698.0 1
32 7 38 577.0 603.0 1
33 0 13 352.0 390.0 0
34 2 44 719.0 747.0 1
35 5 -1 715.0 743.0 0
36 9 15 378.0 416.0 0
37 1 10 481.0 501.0 0
38 7 42 603.0 636.0 1
39 9 -1 743.0 777.0 1
40 1 -1 706.0 736.0 1
41 8 43 710.0 743.0 0
42 7 29 636.0 675.0 1
43 8 -1 743.0 768.0 1
44 2 -1 755.0 781.0 1
45 6 -1 719.0 743.0 0
